(set-logic QF_NRA)
(declare-fun skoX () Real)
(declare-fun skoY () Real)
(declare-fun pi () Real)
(assert (and (<= (+ (* 3600000000000000000000000 (* skoX skoX)) (* 3600000000 (* skoX skoX skoX skoX)) (* (- 1800000000000000000000000) (* skoX skoX skoY skoY)) (* (- 1800000000) (* skoX skoX skoX skoX skoY skoY))) 0) (and (<= (* (- 1) skoX) (- 100)) (and (<= skoX 120) (and (<= (+ (* (- 4) skoY) pi) 0) (and (<= (+ (* 3 skoY) (* (- 1) pi)) 0) (and (not (<= (* (- 10000000) pi) (- 31415927))) (not (<= (* 5000000 pi) 15707963)))))))))
(set-info :status unsat)
(check-sat)
